(set-logic LIA)

(synth-fun floorIsOrdered ( (__iv__input_0_ Int) (__iv__input_1_ Int) (__iv__input_2_ Int) (__iv__input_3_ Int) (__iv__input_4_ Int) (__iv__input_5_ Int) (__iv__input_6_ Int) (__iv__input_7_ Int) (__iv__input_8_ Int) (__iv__input_9_ Int) (__iv__input_10_ Int) (__iv__input_11_ Int) (__iv__input_12_ Int) (__iv__input_13_ Int)) Int
((Start Int (ntInt))
(ntInt Int (
	0 1 2 3 4 -1 5 
	__iv__input_0_ __iv__input_1_ __iv__input_2_ __iv__input_3_ __iv__input_4_ __iv__input_5_ __iv__input_6_ __iv__input_7_ __iv__input_8_ __iv__input_9_ __iv__input_10_ __iv__input_11_ __iv__input_12_ __iv__input_13_ 
	(* ntInt ntInt)
	(ite ntBool ntInt ntInt)
	(+ ntInt ntInt)
	(- ntInt ntInt)
))
(ntBool Bool (
	(not ntBool)
	(or ntBool ntBool)
	(and ntBool ntBool)
	(< ntInt ntInt)
	(= ntInt ntInt)
	(>= ntInt ntInt)
))
))

(constraint (=(floorIsOrdered 1 0 0 1 0 1 0 1 1 0 0 0 1 0) 1))
(constraint (=(floorIsOrdered 2 1 0 1 0 1 0 1 1 0 0 1 1 0) 1))
(constraint (=(floorIsOrdered 2 1 0 1 0 1 0 1 1 0 0 1 1 1) 1))
(constraint (=(floorIsOrdered 1 1 1 0 1 0 0 1 1 1 0 0 1 0) 0))
(constraint (=(floorIsOrdered 1 0 1 0 1 0 0 1 1 1 0 1 1 0) 1))
(constraint (=(floorIsOrdered 1 0 1 0 1 1 0 1 1 1 0 1 1 1) 1))
(constraint (=(floorIsOrdered 1 0 0 0 1 1 0 0 1 1 1 0 1 1) 0))
(constraint (=(floorIsOrdered 1 0 0 0 1 1 1 0 1 1 1 0 1 1) 0))
(constraint (=(floorIsOrdered 1 0 1 0 1 1 1 0 1 1 1 0 1 1) 0))
(constraint (=(floorIsOrdered 2 -2 -36 24 -13 2 20 -26 3 7 -11 -25 17 7) 0))
(constraint (=(floorIsOrdered 3 -1 0 0 0 10 0 3 0 1 -11 0 0 -2) 1))
(constraint (=(floorIsOrdered 2 19 -1 10 1 0 0 21 1 0 9 0 -2 0) 0))
(constraint (=(floorIsOrdered 1 -1 -1 -1 0 0 10 4 0 0 0 -2 30 25) 0))
(constraint (=(floorIsOrdered 0 25 14 55 3 24 124 -52 -16 27 -94 14 20 -109) 0))
(constraint (=(floorIsOrdered 1 -1 -1 12 0 -17 0 -2 0 -29 -49 -2 -27 0) 0))
(constraint (=(floorIsOrdered 1 1 6 0 0 24 12 0 0 31 -36 -12 0 0) 0))
(constraint (=(floorIsOrdered 2 1 0 0 -2 -1 0 2 13 15 -18 0 -2 0) 0))
(constraint (=(floorIsOrdered 0 -116 11 62 4 22 -60 -7 24 -7 -37 29 77 -26) 0))
(constraint (=(floorIsOrdered 0 0 -2 18 -3 27 1 27 -22 0 -2 0 31 0) 1))
(constraint (=(floorIsOrdered 3 1 0 -31 16 1 -16 0 0 -12 13 0 43 14) 1))
(constraint (=(floorIsOrdered 3 1 -29 -25 -24 -21 -26 0 0 0 0 0 0 -2) 0))
(constraint (=(floorIsOrdered 3 1 0 27 3 -2 -28 0 0 -1 0 0 0 -2) 1))
(constraint (=(floorIsOrdered 2 1 6 0 -28 -23 0 0 -1 0 0 3 6 11) 0))
(constraint (=(floorIsOrdered 0 -16 1 33 20 0 -3 11 0 0 -2 -4 0 16) 0))
(constraint (=(floorIsOrdered 0 -2 -20 23 9 2 46 -51 3 -27 1 6 -1 -27) 1))
(constraint (=(floorIsOrdered 2 -1 0 19 -19 -20 -36 0 1 0 24 0 -16 0) 1))
(constraint (=(floorIsOrdered 2 1 0 0 -2 -15 -22 0 -47 2 -16 0 -7 0) 0))
(constraint (=(floorIsOrdered 1 -1 -8 0 -20 0 45 -29 -29 0 0 -10 -6 0) 0))
(constraint (=(floorIsOrdered 3 1 -14 -31 20 6 -5 -6 -17 -17 35 4 26 -17) 1))
(constraint (=(floorIsOrdered 3 1 0 0 3 1 -23 32 0 13 25 2 0 -33) 1))
(constraint (=(floorIsOrdered 0 36 -35 42 -11 -41 -32 22 -30 20 -20 2 14 -10) 0))
(constraint (=(floorIsOrdered 1 11 13 -1 -30 0 3 -2 -26 0 11 -2 31 0) 0))
(constraint (=(floorIsOrdered 0 -1 -22 38 44 28 29 21 -27 49 -35 -42 -16 -4) 1))
(constraint (=(floorIsOrdered 1 12 -15 1 0 4 0 27 0 0 0 -2 0 16) 0))
(constraint (=(floorIsOrdered 0 0 8 0 0 0 -24 0 0 -31 -15 0 0 -31) 0))
(constraint (=(floorIsOrdered 0 37 22 30 -2 -10 30 -37 -3 -23 -2 1 -2 -47) 0))
(constraint (=(floorIsOrdered 0 1 15 45 7 0 -3 55 0 54 -42 -4 4 -14) 0))
(constraint (=(floorIsOrdered 2 1 0 0 -2 -1 0 0 -1 0 0 0 -2 0) 0))
(constraint (=(floorIsOrdered 0 1 0 25 0 22 0 0 0 5 -2 0 0 -13) 0))
(constraint (=(floorIsOrdered 0 0 1 -13 0 0 -33 -30 34 -16 -2 59 18 -5) 1))
(constraint (=(floorIsOrdered 0 8 11 23 -2 26 46 -51 -25 -31 37 6 -1 -27) 0))
(constraint (=(floorIsOrdered 3 1 -14 0 0 0 0 0 0 0 0 0 0 2) 0))
(constraint (=(floorIsOrdered 0 -98 13 51 -50 27 -58 22 70 -38 1 4 80 -13) 1))
(constraint (=(floorIsOrdered 0 -54 32 30 35 -16 77 -113 29 -18 0 -37 39 24) 0))
(constraint (=(floorIsOrdered 0 1 0 0 0 -14 0 0 0 0 -2 0 -5 0) 0))
(constraint (=(floorIsOrdered 0 0 25 21 0 18 -31 0 4 0 -11 2 0 0) 0))
(constraint (=(floorIsOrdered 0 9 -21 -17 11 -5 9 -26 15 -49 -32 -27 -24 -10) 0))
(constraint (=(floorIsOrdered 0 1 0 11 23 0 23 -18 0 0 -2 0 0 0) 0))
(constraint (=(floorIsOrdered 0 23 1 45 -23 31 -28 30 59 57 -18 -42 24 39) 0))
(check-synth)